Route #1: 1 1 15 19 21 10 9 8 32 6 5 3 2 12 11 13 1 
Route #2: 1 14 17 20 25 28 29 30 1 
Route #3: 1 26 27 24 23 22 18 1 
Route #4: 1 7 4 31 16 1 

Cost 707.111
Time 0.2103


 * Another infos *

 Iterations: 33 Time: 0.2103 sec - 0.0035 min - 0.0001 horas
0.0000 h 0.0035 min
Problem dimension: 33
